data/solutions/neumuenster/neumuenster.log

Gurobi 12.0.2 (win64) logging started Thu May 29 14:02:32 2025

Set parameter LogFile to value "data/solutions/neumuenster/neumuenster.log"
Gurobi Optimizer version 12.0.2 build v12.0.2rc0 (win64 - Windows 11.0 (26100.2))

CPU model: Intel(R) Core(TM) i5-14600KF, instruction set [SSE2|AVX|AVX2]
Thread count: 14 physical cores, 20 logical processors, using up to 1 threads

Non-default parameters:
TimeLimit  3600
FeasibilityTol  1e-07
IntFeasTol  1e-07
MIPGap  0
Threads  1
LazyConstraints  1

Academic license 2670408 - for non-commercial use only - registered to s6___@uni-bonn.de
Optimize a model with 632 rows, 773 columns and 2983 nonzeros
Model fingerprint: 0xec867b28
Model has 1 quadratic constraint
Variable types: 3 continuous, 770 integer (770 binary)
Coefficient statistics:
  Matrix range     [1e+00, 1e+07]
  QMatrix range    [1e+00, 1e+01]
  Objective range  [1e+00, 1e+00]
  Bounds range     [1e+00, 1e+00]
  RHS range        [1e+00, 1e+00]
Presolve removed 1 rows and 0 columns
Presolve time: 0.00s
Presolved: 631 rows, 773 columns, 2841 nonzeros
Presolved model has 1 quadratic constraint(s)
Variable types: 3 continuous, 770 integer (770 binary)

Root relaxation: objective 0.000000e+00, 2 iterations, 0.00 seconds (0.00 work units)

    Nodes    |    Current Node    |     Objective Bounds      |     Work
 Expl Unexpl |  Obj  Depth IntInf | Incumbent    BestBd   Gap | It/Node Time

     0     0    0.00000    0    -          -    0.00000      -     -    0s
     0     0    0.00000    0    6          -    0.00000      -     -    0s
H    0     0                       1.0227561    0.00000   100%     -    0s
     0     0    0.00000    0    5    1.02276    0.00000   100%     -    0s
     0     0    0.00000    0    4    1.02276    0.00000   100%     -    0s
     0     0    0.00000    0    4    1.02276    0.00000   100%     -    0s
     0     0    0.00000    0   10    1.02276    0.00000   100%     -    0s
     0     0    0.00000    0    -    1.02276    0.00000   100%     -    0s
     0     0    0.00000    0  120    1.02276    0.00000   100%     -    0s
     0     0    0.00000    0   91    1.02276    0.00000   100%     -    0s
     0     2    0.00497    0  152    1.02276    0.00497   100%     -    0s
*  152     0              55       1.0059693    1.00597  0.00%  18.9    0s

Explored 153 nodes (4280 simplex iterations) in 0.14 seconds (0.21 work units)
Thread count was 1 (of 20 available processors)

Solution count 2: 1.00597 1.02276 

Optimal solution found (tolerance 0.00e+00)
Warning: max constraint violation (6.1133e-06) exceeds tolerance
Best objective 1.005969285554e+00, best bound 1.005969285554e+00, gap 0.0000%

User-callback calls 525, time in user-callback 0.00 sec
